* ENCODING=ISO-8859-1
NAME          CPLEX
ROWS
 N  obj1    
 G  c1      
 G  c2      
 G  c3      
 G  c4      
 G  c5      
 G  c6      
 G  c7      
 G  c8      
 G  c9      
 G  c10     
 G  c11     
 G  c12     
 G  c13     
 G  c14     
 G  c15     
 G  c16     
 G  c17     
 G  c18     
 G  c19     
 G  c20     
 G  c21     
 G  c22     
 G  c23     
 G  c24     
 G  c25     
 G  c26     
 G  c27     
 G  c28     
 G  c29     
 G  c30     
 G  c31     
 G  c32     
 G  c33     
 G  c34     
 G  c35     
 G  c36     
 G  c37     
 G  c38     
 G  c39     
 G  c40     
 G  c41     
 G  c42     
 G  c43     
 G  c44     
 G  c45     
 G  c46     
 G  c47     
 G  c48     
 G  c49     
 G  c50     
COLUMNS
    MARK0000  'MARKER'                 'INTORG'
    x1        obj1                            1
    x1        c3                            752
    x1        c33                           730
    x2        obj1                            1
    x2        c4                            737
    x2        c8                            624
    x2        c15                           840
    x2        c27                           173
    x2        c30                           656
    x2        c35                           520
    x2        c42                           547
    x2        c43                           876
    x2        c45                           767
    x2        c47                           803
    x2        c49                           344
    x3        obj1                            1
    x3        c1                            247
    x3        c4                            825
    x3        c24                           744
    x3        c33                           270
    x3        c36                           723
    x3        c38                           187
    x3        c45                           762
    x4        obj1                            1
    x4        c11                           989
    x4        c21                           100
    x4        c29                           656
    x4        c42                           221
    x4        c47                           774
    x4        c50                           750
    x5        obj1                            1
    x5        c8                            182
    x5        c14                           398
    x5        c40                           138
    x6        obj1                            1
    x6        c14                           202
    x6        c15                           211
    x6        c17                           167
    x6        c19                           733
    x6        c24                           276
    x6        c30                           353
    x7        obj1                            1
    x7        c10                           117
    x7        c37                           332
    x8        obj1                            1
    x8        c1                            236
    x8        c5                            340
    x8        c10                           514
    x8        c26                           290
    x8        c46                           154
    x8        c50                           170
    x9        obj1                            1
    x9        c3                            901
    x9        c36                           685
    x9        c39                           569
    x9        c41                           962
    x10       obj1                            1
    x10       c13                           917
    x10       c18                           717
    x10       c23                           926
    x10       c32                           961
    x10       c40                           120
    x10       c47                           720
    x11       obj1                            1
    x11       c8                            824
    x11       c15                           199
    x11       c19                           127
    x12       obj1                            1
    x12       c1                            464
    x12       c9                            890
    x13       obj1                            1
    x13       c10                           838
    x13       c22                           684
    x13       c39                           521
    x14       obj1                            1
    x14       c10                           514
    x15       obj1                            1
    x15       c6                            668
    x15       c17                           517
    x15       c26                           560
    x15       c32                           961
    x15       c37                           941
    x15       c46                           214
    x16       obj1                            1
    x16       c7                            347
    x16       c20                           596
    x16       c25                           918
    x16       c48                           171
    x17       obj1                            1
    x17       c9                            525
    x17       c11                           680
    x17       c16                           828
    x18       obj1                            1
    x18       c1                            270
    x18       c15                           213
    x18       c22                           753
    x18       c28                           800
    x18       c29                           761
    x18       c40                           785
    x18       c42                           334
    x18       c46                           679
    x19       obj1                            1
    x19       c7                            555
    x19       c9                            706
    x19       c25                           583
    x19       c32                           257
    x19       c41                           396
    x20       obj1                            1
    x20       c1                            461
    x20       c3                            347
    x20       c14                           397
    x20       c19                           736
    x20       c41                           691
    x21       obj1                            1
    x21       c16                           899
    x21       c17                           752
    x21       c22                           454
    x21       c35                           455
    x21       c36                           816
    x21       c41                           669
    x22       obj1                            1
    x22       c12                           991
    x22       c24                           225
    x22       c34                           209
    x22       c38                           532
    x22       c39                           278
    x22       c46                           413
    x22       c48                           903
    x23       obj1                            1
    x23       c15                           296
    x23       c23                           439
    x23       c39                           220
    x24       obj1                            1
    x24       c7                            681
    x24       c11                           587
    x24       c12                           238
    x24       c14                           104
    x24       c23                           403
    x25       obj1                            1
    x25       c5                            382
    x25       c10                           374
    x25       c24                           703
    x25       c27                           667
    x25       c39                           270
    x25       c42                           249
    x26       obj1                            1
    x26       c7                            734
    x26       c19                           459
    x26       c21                           887
    x26       c25                           735
    x26       c38                           783
    x26       c46                           521
    x26       c48                           546
    x27       obj1                            1
    x27       c9                            786
    x27       c19                           407
    x27       c20                           137
    x27       c35                           757
    x28       obj1                            1
    x28       c2                            597
    x28       c3                            603
    x28       c6                            100
    x28       c35                           315
    x28       c40                           491
    x28       c43                           869
    x28       c49                           420
    x29       obj1                            1
    x29       c1                            187
    x29       c8                            158
    x29       c14                           969
    x29       c19                           188
    x29       c31                           152
    x29       c33                           137
    x30       obj1                            1
    x30       c6                            313
    x30       c8                            846
    x30       c42                           774
    x31       obj1                            1
    x31       c10                           853
    x31       c13                           493
    x31       c31                           613
    x31       c32                           658
    x31       c46                           359
    x31       c50                           561
    x32       obj1                            1
    x32       c2                            147
    x32       c4                            739
    x32       c23                           335
    x32       c25                           804
    x32       c28                           324
    x32       c37                           265
    x32       c38                           802
    x32       c44                           429
    x33       obj1                            1
    x33       c5                            134
    x33       c13                           253
    x33       c16                           320
    x33       c17                           779
    x33       c25                           874
    x33       c28                           604
    x33       c39                           385
    x34       obj1                            1
    x34       c34                           736
    x34       c44                           160
    x35       obj1                            1
    x35       c23                           174
    x35       c31                           966
    x35       c40                           173
    x35       c49                           536
    x35       c50                           235
    x36       obj1                            1
    x36       c13                           232
    x36       c14                           154
    x36       c16                           562
    x36       c25                           563
    x36       c31                           891
    x36       c45                           167
    x36       c47                           661
    x37       obj1                            1
    x37       c25                           856
    x37       c29                           141
    x37       c40                           479
    x37       c44                           162
    x37       c45                           951
    x37       c47                           240
    x38       obj1                            1
    x38       c2                            942
    x38       c17                           181
    x38       c28                           141
    x38       c41                           305
    x39       obj1                            1
    x39       c2                            882
    x39       c4                            268
    x39       c17                           719
    x39       c33                           581
    x39       c48                           794
    x39       c49                           549
    x40       obj1                            1
    x40       c10                           834
    x40       c15                           496
    x40       c18                           656
    x40       c31                           671
    x40       c43                           822
    x41       obj1                            1
    x41       c6                            732
    x41       c9                            196
    x41       c22                           677
    x41       c38                           910
    x42       obj1                            1
    x42       c2                            564
    x42       c18                           555
    x42       c20                           324
    x42       c23                           527
    x42       c37                           225
    x43       obj1                            1
    x43       c16                           665
    x43       c23                           532
    x43       c31                           137
    x43       c43                           912
    x43       c48                           638
    x43       c49                           639
    x44       obj1                            1
    x44       c12                           722
    x44       c19                           534
    x44       c21                           404
    x44       c29                           272
    x44       c48                           102
    x45       obj1                            1
    x45       c2                            513
    x45       c3                            266
    x46       obj1                            1
    x46       c17                           718
    x46       c26                           728
    x46       c27                           450
    x46       c35                           832
    x46       c44                           799
    x46       c46                           149
    x47       obj1                            1
    x47       c14                           358
    x47       c47                           249
    x47       c49                           424
    x48       obj1                            1
    x48       c1                            333
    x48       c22                           777
    x48       c29                           143
    x48       c38                           299
    x48       c47                           748
    x49       obj1                            1
    x49       c8                            796
    x49       c13                           664
    x49       c16                           287
    x49       c30                           387
    x49       c38                           726
    x50       obj1                            1
    x50       c3                            503
    x50       c12                           227
    x50       c15                           644
    x50       c20                           969
    x50       c34                           274
    x50       c49                           858
    MARK0001  'MARKER'                 'INTEND'
RHS
    rhs       c1                           1099
    rhs       c2                           1823
    rhs       c3                           1686
    rhs       c4                           1285
    rhs       c5                            428
    rhs       c6                            907
    rhs       c7                           1159
    rhs       c8                           1715
    rhs       c9                           1552
    rhs       c10                          2022
    rhs       c11                          1128
    rhs       c12                          1089
    rhs       c13                          1280
    rhs       c14                          1291
    rhs       c15                          1450
    rhs       c16                          1781
    rhs       c17                          1917
    rhs       c18                           964
    rhs       c19                          1592
    rhs       c20                          1013
    rhs       c21                           696
    rhs       c22                          1673
    rhs       c23                          1668
    rhs       c24                           974
    rhs       c25                          2667
    rhs       c26                           789
    rhs       c27                           645
    rhs       c28                           935
    rhs       c29                           987
    rhs       c30                           698
    rhs       c31                          1715
    rhs       c32                          1419
    rhs       c33                           859
    rhs       c34                           610
    rhs       c35                          1440
    rhs       c36                          1112
    rhs       c37                           882
    rhs       c38                          2120
    rhs       c39                          1122
    rhs       c40                          1093
    rhs       c41                          1512
    rhs       c42                          1063
    rhs       c43                          1740
    rhs       c44                           775
    rhs       c45                          1324
    rhs       c46                          1245
    rhs       c47                          2098
    rhs       c48                          1577
    rhs       c49                          1885
    rhs       c50                           858
BOUNDS
 LI bnd       x1        0
 LI bnd       x2        0
 LI bnd       x3        0
 LI bnd       x4        0
 LI bnd       x5        0
 LI bnd       x6        0
 LI bnd       x7        0
 LI bnd       x8        0
 LI bnd       x9        0
 LI bnd       x10       0
 LI bnd       x11       0
 LI bnd       x12       0
 LI bnd       x13       0
 LI bnd       x14       0
 LI bnd       x15       0
 LI bnd       x16       0
 LI bnd       x17       0
 LI bnd       x18       0
 LI bnd       x19       0
 LI bnd       x20       0
 LI bnd       x21       0
 LI bnd       x22       0
 LI bnd       x23       0
 LI bnd       x24       0
 LI bnd       x25       0
 LI bnd       x26       0
 LI bnd       x27       0
 LI bnd       x28       0
 LI bnd       x29       0
 LI bnd       x30       0
 LI bnd       x31       0
 LI bnd       x32       0
 LI bnd       x33       0
 LI bnd       x34       0
 LI bnd       x35       0
 LI bnd       x36       0
 LI bnd       x37       0
 LI bnd       x38       0
 LI bnd       x39       0
 LI bnd       x40       0
 LI bnd       x41       0
 LI bnd       x42       0
 LI bnd       x43       0
 LI bnd       x44       0
 LI bnd       x45       0
 LI bnd       x46       0
 LI bnd       x47       0
 LI bnd       x48       0
 LI bnd       x49       0
 LI bnd       x50       0
ENDATA
